Medium-instances_NetworkFacilityLocation/2023-03-27_20hr-25min-09sec/Nodes30_Arcs35_LocNodes22/Formulation-1Instance-4.lp
\ Model LocPrice
\ LP format - for model browsing. Use MPS format to capture full model detail.
Maximize
  - 160 x[1] - 165 x[3] - 163 x[4] - 187 x[5] - 165 x[6] - 159 x[7]
   - 172 x[8] - 175 x[10] - 164 x[11] - 155 x[12] - 181 x[13] - 172 x[16]
   - 192 x[17] - 194 x[19] - 151 x[20] - 171 x[22] - 173 x[23] - 156 x[24]
   - 180 x[26] - 191 x[28] - 173 x[29] - 169 x[30] - 3.410461246190287 Q[1]
   - 4.870071176790667 Q[3] - 4.991823105772032 Q[4]
   - 4.657821042320893 Q[5] - 4.169113964593747 Q[6]
   - 4.666150645314898 Q[7] - 4.345807624334061 Q[8]
   - 4.731227271327517 Q[10] - 3.998199335749566 Q[11]
   - 3.564474318505122 Q[12] - 4.115810792825214 Q[13]
   - 3.991140845959634 Q[16] - 3.419337413715191 Q[17]
   - 4.345924070576746 Q[19] - 4.461664898167058 Q[20]
   - 3.527984717932259 Q[22] - 3.32738589992211 Q[23]
   - 4.162680361390276 Q[24] - 3.918176367206402 Q[26]
   - 4.449642444106327 Q[28] - 4.488215883141629 Q[29]
   - 3.038605103671806 Q[30] + [ 2 pi[1] * Q[1] + 2 pi[3] * Q[3]
   + 2 pi[4] * Q[4] + 2 pi[5] * Q[5] + 2 pi[6] * Q[6] + 2 pi[7] * Q[7]
   + 2 pi[8] * Q[8] + 2 pi[10] * Q[10] + 2 pi[11] * Q[11]
   + 2 pi[12] * Q[12] + 2 pi[13] * Q[13] + 2 pi[16] * Q[16]
   + 2 pi[17] * Q[17] + 2 pi[19] * Q[19] + 2 pi[20] * Q[20]
   + 2 pi[22] * Q[22] + 2 pi[23] * Q[23] + 2 pi[24] * Q[24]
   + 2 pi[26] * Q[26] + 2 pi[28] * Q[28] + 2 pi[29] * Q[29]
   + 2 pi[30] * Q[30] ] / 2 
Subject To
 R0: Q[1] + Q[3] + Q[4] + Q[5] + Q[6] + Q[7] + Q[8] + Q[10] + Q[11] + Q[12]
   + Q[13] + Q[16] + Q[17] + Q[19] + Q[20] + Q[22] + Q[23] + Q[24] + Q[26]
   + Q[28] + Q[29] + Q[30] <= 1925
 R1: - 125 x[1] + Q[1] <= 0
 R2: - 155 x[3] + Q[3] <= 0
 R3: - 138 x[4] + Q[4] <= 0
 R4: - 145 x[5] + Q[5] <= 0
 R5: - 107 x[6] + Q[6] <= 0
 R6: - 106 x[7] + Q[7] <= 0
 R7: - 169 x[8] + Q[8] <= 0
 R8: - 123 x[10] + Q[10] <= 0
 R9: - 105 x[11] + Q[11] <= 0
 R10: - 190 x[12] + Q[12] <= 0
 R11: - 146 x[13] + Q[13] <= 0
 R12: - 172 x[16] + Q[16] <= 0
 R13: - 199 x[17] + Q[17] <= 0
 R14: - 179 x[19] + Q[19] <= 0
 R15: - 140 x[20] + Q[20] <= 0
 R16: - 105 x[22] + Q[22] <= 0
 R17: - 121 x[23] + Q[23] <= 0
 R18: - 152 x[24] + Q[24] <= 0
 R19: - 140 x[26] + Q[26] <= 0
 R20: - 188 x[28] + Q[28] <= 0
 R21: - 126 x[29] + Q[29] <= 0
 R22: - 151 x[30] + Q[30] <= 0
 node[6]: - Q[6] + f[6,5] - f[18,6] - f[21,6] = 0
 node[7]: - Q[7] + f[7,2] - f[12,7] = 0
 node[10]: - Q[10] + f[10,1] = 0
 node[19]: - Q[19] + f[19,13] = 0
 node[23]: - Q[23] + f[23,5] = 0
 node[29]: - Q[29] + f[29,15] = 0
 node[8]: - Q[8] + f[8,3] - f[17,8] - S[8] = 0
 node[11]: - Q[11] + f[11,5] - f[16,11] - S[11] = 0
 node[17]: - Q[17] + f[17,8] - f[25,17] - S[17] = 0
 node[24]: - Q[24] + f[24,18] - S[24] = 0
 node[26]: - Q[26] + f[26,22] - f[16,26] - f[20,26] - f[14,26] - S[26] = 0
 node[28]: - Q[28] + f[28,15] - f[30,28] - S[28] = 0
 node[1]: - Q[1] - f[2,1] - f[10,1] + D[1] = 0
 node[5]: - Q[5] + f[5,3] - f[6,5] - f[11,5] - f[23,5] + D[5] = 0
 node[13]: - Q[13] + f[13,12] - f[19,13] + D[13] = 0
 node[16]: - Q[16] + f[16,11] + f[16,26] + D[16] = 0
 node[20]: - Q[20] + f[20,9] + f[20,26] + D[20] = 0
 node[30]: - Q[30] + f[30,28] - f[18,30] + D[30] = 0
 node[3]: - Q[3] + f[3,2] - f[4,3] - f[5,3] - f[8,3] - f[25,3] + D[3]
   - S[3] = 0
 node[4]: - Q[4] + f[4,3] - f[27,4] + D[4] - S[4] = 0
 node[12]: - Q[12] + f[12,7] - f[13,12] + D[12] - S[12] = 0
 node[22]: - Q[22] + f[22,21] - f[26,22] + f[22,14] + D[22] - S[22] = 0
 node[21]: f[21,6] - f[22,21] = 0
 node[18]: f[18,6] - f[24,18] + f[18,30] - S[18] = 0
 node[14]: f[14,2] - f[15,14] + f[14,26] - f[22,14] - S[14] = 0
 node[9]: f[9,2] - f[20,9] + D[9] = 0
 node[2]: f[2,1] - f[3,2] - f[7,2] - f[9,2] - f[14,2] + D[2] = 0
 node[25]: f[25,3] + f[25,17] + D[25] - S[25] = 0
 node[27]: f[27,4] + D[27] - S[27] = 0
 node[15]: f[15,14] - f[28,15] - f[29,15] + D[15] - S[15] = 0
 Cost_Flow[2,1]: - pi[1] + pi[2] + 0.4209527962938744 f[2,1] - mu_f[2,1]
   = -2.706679276985861
 Cost_Flow[3,2]: - pi[2] + pi[3] + 1.733009225464166 f[3,2] - mu_f[3,2]
   = -2.056134714967787
 Cost_Flow[4,3]: - pi[3] + pi[4] + 1.344651073460464 f[4,3] - mu_f[4,3]
   = -0.5312836058667948
 Cost_Flow[5,3]: - pi[3] + pi[5] + 1.580124839674199 f[5,3] - mu_f[5,3]
   = -0.5973836744431288
 Cost_Flow[6,5]: - pi[5] + pi[6] + 1.488475272189512 f[6,5] - mu_f[6,5]
   = -1.131358255500191
 Cost_Flow[7,2]: - pi[2] + pi[7] + 1.188007921028674 f[7,2] - mu_f[7,2]
   = -0.5254018410506091
 Cost_Flow[8,3]: - pi[3] + pi[8] + 0.6470819428285239 f[8,3] - mu_f[8,3]
   = -2.843709854276379
 Cost_Flow[9,2]: - pi[2] + pi[9] + 0.5715316476173813 f[9,2] - mu_f[9,2]
   = -1.326790887944403
 Cost_Flow[10,1]: - pi[1] + pi[10] + 1.241704172388023 f[10,1] - mu_f[10,1]
   = -2.119659244356814
 Cost_Flow[11,5]: - pi[5] + pi[11] + 1.235642564035867 f[11,5] - mu_f[11,5]
   = -0.4855066130149894
 Cost_Flow[12,7]: - pi[7] + pi[12] + 1.837100558910142 f[12,7] - mu_f[12,7]
   = -1.720666251980072
 Cost_Flow[13,12]: - pi[12] + pi[13] + 1.251299215535949 f[13,12]
   - mu_f[13,12] = -0.2842184088161818
 Cost_Flow[14,2]: - pi[2] + pi[14] + 1.133224119132227 f[14,2] - mu_f[14,2]
   = -0.7609877238035441
 Cost_Flow[15,14]: - pi[14] + pi[15] + 0.0336638080502567 f[15,14]
   - mu_f[15,14] = -2.446332326938784
 Cost_Flow[16,11]: - pi[11] + pi[16] + 1.320469891295889 f[16,11]
   - mu_f[16,11] = -1.293864444499299
 Cost_Flow[17,8]: - pi[8] + pi[17] + 1.757853264202687 f[17,8] - mu_f[17,8]
   = -2.43091864199173
 Cost_Flow[18,6]: - pi[6] + pi[18] + 1.280931103141499 f[18,6] - mu_f[18,6]
   = -1.555443984779902
 Cost_Flow[19,13]: - pi[13] + pi[19] + 1.03928666370581 f[19,13]
   - mu_f[19,13] = -1.495724897531004
 Cost_Flow[20,9]: - pi[9] + pi[20] + 0.6764994871704619 f[20,9]
   - mu_f[20,9] = -1.363693942107097
 Cost_Flow[21,6]: - pi[6] + pi[21] + 1.987436088911866 f[21,6] - mu_f[21,6]
   = -1.121738649761798
 Cost_Flow[22,21]: - pi[21] + pi[22] + 0.5873479209612289 f[22,21]
   - mu_f[22,21] = -1.618863431065088
 Cost_Flow[23,5]: - pi[5] + pi[23] + 1.562368007822657 f[23,5] - mu_f[23,5]
   = -0.86052565368636
 Cost_Flow[24,18]: - pi[18] + pi[24] + 0.9888054972239051 f[24,18]
   - mu_f[24,18] = -2.521159344901314
 Cost_Flow[25,3]: - pi[3] + pi[25] + 1.134108394239372 f[25,3] - mu_f[25,3]
   = -0.7198191659643869
 Cost_Flow[26,22]: - pi[22] + pi[26] + 0.0504607802121018 f[26,22]
   - mu_f[26,22] = -2.186914120312973
 Cost_Flow[27,4]: - pi[4] + pi[27] + 1.608910151772595 f[27,4] - mu_f[27,4]
   = -1.12007611215657
 Cost_Flow[28,15]: - pi[15] + pi[28] + 0.8968031775525991 f[28,15]
   - mu_f[28,15] = -1.633122595045326
 Cost_Flow[29,15]: - pi[15] + pi[29] + 1.875850717804353 f[29,15]
   - mu_f[29,15] = -0.4440892151370857
 Cost_Flow[30,28]: - pi[28] + pi[30] + 1.913229419949531 f[30,28]
   - mu_f[30,28] = -2.781420493505744
 Cost_Flow[16,26]: pi[16] - pi[26] + 0.9772206439887152 f[16,26]
   - mu_f[16,26] = -1.607028644576143
 Cost_Flow[20,26]: pi[20] - pi[26] + 0.7292920563859766 f[20,26]
   - mu_f[20,26] = -1.868809686008793
 Cost_Flow[14,26]: pi[14] - pi[26] + 1.594893635148295 f[14,26]
   - mu_f[14,26] = -2.466082175256481
 Cost_Flow[25,17]: - pi[17] + pi[25] + 0.6080977936241438 f[25,17]
   - mu_f[25,17] = -0.401051993429442
 Cost_Flow[22,14]: - pi[14] + pi[22] + 0.8578027928799685 f[22,14]
   - mu_f[22,14] = -2.587018695884554
 Cost_Flow[18,30]: pi[18] - pi[30] + 0.9682840334165157 f[18,30]
   - mu_f[18,30] = -2.049272207354805
 Cost_Demand[1]: pi[1] + 3.83667506338277 D[1] - mu_D[1] = 1432
 Cost_Demand[2]: pi[2] + 3.908391487976025 D[2] - mu_D[2] = 1447
 Cost_Demand[3]: pi[3] + 3.15389191859677 D[3] - mu_D[3] = 1343
 Cost_Demand[4]: pi[4] + 3.605413905365062 D[4] - mu_D[4] = 1487
 Cost_Demand[5]: pi[5] + 3.632277649821318 D[5] - mu_D[5] = 1400
 Cost_Demand[9]: pi[9] + 3.532367145286068 D[9] - mu_D[9] = 1362
 Cost_Demand[12]: pi[12] + 3.853292479594729 D[12] - mu_D[12] = 1385
 Cost_Demand[13]: pi[13] + 3.423915348778001 D[13] - mu_D[13] = 1396
 Cost_Demand[15]: pi[15] + 3.868981375838712 D[15] - mu_D[15] = 1494
 Cost_Demand[16]: pi[16] + 3.806368271143703 D[16] - mu_D[16] = 1459
 Cost_Demand[20]: pi[20] + 3.674543522132414 D[20] - mu_D[20] = 1418
 Cost_Demand[22]: pi[22] + 3.198243783111464 D[22] - mu_D[22] = 1497
 Cost_Demand[25]: pi[25] + 3.330317414223964 D[25] - mu_D[25] = 1462
 Cost_Demand[27]: pi[27] + 3.355662979839514 D[27] - mu_D[27] = 1431
 Cost_Demand[30]: pi[30] + 3.950892868689085 D[30] - mu_D[30] = 1391
 Cost_Supply[3]: - pi[3] + 0.3153503000991673 S[3] - mu_S[3]
   = -1.33316632634794
 Cost_Supply[4]: - pi[4] + 0.4511502848193045 S[4] - mu_S[4]
   = -1.961140075629223
 Cost_Supply[8]: - pi[8] + 0.9609598066219754 S[8] - mu_S[8]
   = -1.164695395994992
 Cost_Supply[11]: - pi[11] + 0.2498030243669273 S[11] - mu_S[11]
   = -1.324105735669329
 Cost_Supply[12]: - pi[12] + 0.2284905743755393 S[12] - mu_S[12]
   = -1.627292782072972
 Cost_Supply[14]: - pi[14] + 0.5343989617680274 S[14] - mu_S[14]
   = -1.55808086180854
 Cost_Supply[15]: - pi[15] + 0.5303766661328474 S[15] - mu_S[15]
   = -1.856449754420598
 Cost_Supply[17]: - pi[17] + 0.479070226737583 S[17] - mu_S[17]
   = -1.068099338475198
 Cost_Supply[18]: - pi[18] + 0.5256161953713893 S[18] - mu_S[18]
   = -1.440484923103821
 Cost_Supply[22]: - pi[22] + 0.7876370396620508 S[22] - mu_S[22]
   = -1.545586212357723
 Cost_Supply[24]: - pi[24] + 0.7906804660236399 S[24] - mu_S[24]
   = -1.529475719340267
 Cost_Supply[25]: - pi[25] + 0.8766754063389025 S[25] - mu_S[25]
   = -1.558452721131824
 Cost_Supply[26]: - pi[26] + 0.3704305192119722 S[26] - mu_S[26]
   = -1.39713230939513
 Cost_Supply[27]: - pi[27] + 0.6733582338291836 S[27] - mu_S[27]
   = -1.987064681007826
 Cost_Supply[28]: - pi[28] + 0.6172628296220848 S[28] - mu_S[28]
   = -1.192056274581192
Bounds
Binaries
 x[1] x[3] x[4] x[5] x[6] x[7] x[8] x[10] x[11] x[12] x[13] x[16] x[17]
 x[19] x[20] x[22] x[23] x[24] x[26] x[28] x[29] x[30]
SOS
 s0:  S1 :: f[2,1]:1 mu_f[2,1]:2
 s1:  S1 :: f[3,2]:1 mu_f[3,2]:2
 s2:  S1 :: f[4,3]:1 mu_f[4,3]:2
 s3:  S1 :: f[5,3]:1 mu_f[5,3]:2
 s4:  S1 :: f[6,5]:1 mu_f[6,5]:2
 s5:  S1 :: f[7,2]:1 mu_f[7,2]:2
 s6:  S1 :: f[8,3]:1 mu_f[8,3]:2
 s7:  S1 :: f[9,2]:1 mu_f[9,2]:2
 s8:  S1 :: f[10,1]:1 mu_f[10,1]:2
 s9:  S1 :: f[11,5]:1 mu_f[11,5]:2
 s10:  S1 :: f[12,7]:1 mu_f[12,7]:2
 s11:  S1 :: f[13,12]:1 mu_f[13,12]:2
 s12:  S1 :: f[14,2]:1 mu_f[14,2]:2
 s13:  S1 :: f[15,14]:1 mu_f[15,14]:2
 s14:  S1 :: f[16,11]:1 mu_f[16,11]:2
 s15:  S1 :: f[17,8]:1 mu_f[17,8]:2
 s16:  S1 :: f[18,6]:1 mu_f[18,6]:2
 s17:  S1 :: f[19,13]:1 mu_f[19,13]:2
 s18:  S1 :: f[20,9]:1 mu_f[20,9]:2
 s19:  S1 :: f[21,6]:1 mu_f[21,6]:2
 s20:  S1 :: f[22,21]:1 mu_f[22,21]:2
 s21:  S1 :: f[23,5]:1 mu_f[23,5]:2
 s22:  S1 :: f[24,18]:1 mu_f[24,18]:2
 s23:  S1 :: f[25,3]:1 mu_f[25,3]:2
 s24:  S1 :: f[26,22]:1 mu_f[26,22]:2
 s25:  S1 :: f[27,4]:1 mu_f[27,4]:2
 s26:  S1 :: f[28,15]:1 mu_f[28,15]:2
 s27:  S1 :: f[29,15]:1 mu_f[29,15]:2
 s28:  S1 :: f[30,28]:1 mu_f[30,28]:2
 s29:  S1 :: f[16,26]:1 mu_f[16,26]:2
 s30:  S1 :: f[20,26]:1 mu_f[20,26]:2
 s31:  S1 :: f[14,26]:1 mu_f[14,26]:2
 s32:  S1 :: f[25,17]:1 mu_f[25,17]:2
 s33:  S1 :: f[22,14]:1 mu_f[22,14]:2
 s34:  S1 :: f[18,30]:1 mu_f[18,30]:2
 s35:  S1 :: D[1]:1 mu_D[1]:2
 s36:  S1 :: D[2]:1 mu_D[2]:2
 s37:  S1 :: D[3]:1 mu_D[3]:2
 s38:  S1 :: D[4]:1 mu_D[4]:2
 s39:  S1 :: D[5]:1 mu_D[5]:2
 s40:  S1 :: D[9]:1 mu_D[9]:2
 s41:  S1 :: D[12]:1 mu_D[12]:2
 s42:  S1 :: D[13]:1 mu_D[13]:2
 s43:  S1 :: D[15]:1 mu_D[15]:2
 s44:  S1 :: D[16]:1 mu_D[16]:2
 s45:  S1 :: D[20]:1 mu_D[20]:2
 s46:  S1 :: D[22]:1 mu_D[22]:2
 s47:  S1 :: D[25]:1 mu_D[25]:2
 s48:  S1 :: D[27]:1 mu_D[27]:2
 s49:  S1 :: D[30]:1 mu_D[30]:2
 s50:  S1 :: S[3]:1 mu_S[3]:2
 s51:  S1 :: S[4]:1 mu_S[4]:2
 s52:  S1 :: S[8]:1 mu_S[8]:2
 s53:  S1 :: S[11]:1 mu_S[11]:2
 s54:  S1 :: S[12]:1 mu_S[12]:2
 s55:  S1 :: S[14]:1 mu_S[14]:2
 s56:  S1 :: S[15]:1 mu_S[15]:2
 s57:  S1 :: S[17]:1 mu_S[17]:2
 s58:  S1 :: S[18]:1 mu_S[18]:2
 s59:  S1 :: S[22]:1 mu_S[22]:2
 s60:  S1 :: S[24]:1 mu_S[24]:2
 s61:  S1 :: S[25]:1 mu_S[25]:2
 s62:  S1 :: S[26]:1 mu_S[26]:2
 s63:  S1 :: S[27]:1 mu_S[27]:2
 s64:  S1 :: S[28]:1 mu_S[28]:2
End
